NAME : portgen-30-6
COMMENT : portgen N=30, seed=6
TYPE : TSP
DIMENSION : 30
EDGE_WEIGHT_TYPE : EUC_2D
NODE_COORD_SECTION
1 408254 874445
2 323414 221874
3 181362 910628
4 105789 683792
5 682747 524449
6 914679 705071
7 823257 647814
8 929527 111187
9 983450 801863
10 235855 40939
11 114943 748954
12 21508 577430
13 546242 592557
14 856071 72019
15 230455 722642
16 731338 161603
17 256737 171811
18 202973 555125
19 36952 293674
20 889846 171763
21 729520 167533
22 351338 293944
23 363527 237635
24 994303 555034
25 480754 745642
26 611375 25987
27 382517 46647
28 547666 246651
29 617707 151602
30 18901 626236
